QPLIB_2935
LGQ
minimize
180 # number of variables
343 # number of constraints
0.0 # default value for linear coefficients in objective
16 # number of non-default linear coefficients in objective
1 1.0
2 1.0
3 1.0
4 1.0
5 1.0
6 1.0
7 1.0
8 1.0
9 1.0
10 1.0
11 1.0
12 1.0
13 1.0
14 1.0
15 1.0
16 1.0
0.0 # objective constant
18 # number of quadratic terms in all constraints
326 1342862454 1 -2.0
327 50 1 -2.0
328 1 1 -2.0
329 1144779681 2 -2.0
330 32548 1 -2.0
331 50 2 -2.0
332 1 1 -2.0
333 1735355423 36056913 -2.0
334 1953853217 1 -2.0
335 544503153 1 -2.0
336 1931505525 1 -2.0
337 1701147236 2 -2.0
338 1663574127 1 -2.0
339 1869835888 50 -2.0
340 2712941 1 -2.0
341 1735355423 808525857 -2.0
342 1953853217 540024882 -2.0
343 544503153 50 -2.0
1370 # number of linear terms in all constraints
1 17 1.0
1 18 -1.0
2 17 1.0
2 19 0.5
3 17 -1.0
3 19 0.5
4 20 0.5
4 21 1.0
5 20 0.5
5 21 -1.0
6 18 1.0
6 22 0.5
7 18 -1.0
7 22 0.5
8 23 0.5
8 24 1.0
9 23 0.5
9 24 -1.0
10 25 0.5
10 26 1.0
11 25 0.5
11 26 -1.0
12 27 0.5
12 28 1.0
13 27 0.5
13 28 -1.0
14 29 0.5
14 30 1.0
15 29 0.5
15 30 -1.0
16 31 0.5
16 32 1.0
17 31 0.5
17 32 -1.0
18 33 0.5
18 34 1.0
19 33 0.5
19 34 -1.0
20 35 0.5
20 36 1.0
21 35 0.5
21 36 -1.0
22 37 0.5
22 38 1.0
23 37 0.5
23 38 -1.0
24 39 0.5
24 40 1.0
25 39 0.5
25 40 -1.0
26 41 0.5
26 42 1.0
27 41 0.5
27 42 -1.0
28 43 0.5
28 44 1.0
29 43 0.5
29 44 -1.0
30 45 0.5
30 46 1.0
31 45 0.5
31 46 -1.0
32 47 0.5
32 48 1.0
33 47 0.5
33 48 -1.0
34 49 0.5
34 50 1.0
35 49 0.5
35 50 -1.0
36 51 0.5
36 52 1.0
37 51 0.5
37 52 -1.0
38 1 -1.0
38 17 1.0
38 18 -1.0
39 1 -1.0
39 17 -1.0
39 18 1.0
40 2 -1.0
40 21 1.0
40 24 -1.0
41 2 -1.0
41 21 -1.0
41 24 1.0
42 17 -1.0
42 18 1.0
42 19 0.5
42 22 0.5
42 53 -12.0
42 54 -12.0
43 17 1.0
43 18 -1.0
43 19 0.5
43 22 0.5
43 53 -12.0
43 54 12.0
44 20 0.5
44 21 -1.0
44 23 0.5
44 24 1.0
44 53 13.0
44 54 -13.0
45 20 0.5
45 21 1.0
45 23 0.5
45 24 -1.0
45 53 13.0
45 54 13.0
46 17 1.0
46 26 -1.0
46 55 -1.0
47 17 -1.0
47 26 1.0
47 55 -1.0
48 21 1.0
48 28 -1.0
48 56 -1.0
49 21 -1.0
49 28 1.0
49 56 -1.0
50 17 -1.0
50 19 0.5
50 25 0.5
50 26 1.0
50 57 -12.0
50 58 -12.0
51 17 1.0
51 19 0.5
51 25 0.5
51 26 -1.0
51 57 -12.0
51 58 12.0
52 20 0.5
52 21 -1.0
52 27 0.5
52 28 1.0
52 57 13.0
52 58 -13.0
53 20 0.5
53 21 1.0
53 27 0.5
53 28 -1.0
53 57 13.0
53 58 13.0
54 17 1.0
54 30 -1.0
54 59 -1.0
55 17 -1.0
55 30 1.0
55 59 -1.0
56 21 1.0
56 32 -1.0
56 60 -1.0
57 21 -1.0
57 32 1.0
57 60 -1.0
58 17 -1.0
58 19 0.5
58 29 0.5
58 30 1.0
58 61 -12.0
58 62 -12.0
59 17 1.0
59 19 0.5
59 29 0.5
59 30 -1.0
59 61 -12.0
59 62 12.0
60 20 0.5
60 21 -1.0
60 31 0.5
60 32 1.0
60 61 13.0
60 62 -13.0
61 20 0.5
61 21 1.0
61 31 0.5
61 32 -1.0
61 61 13.0
61 62 13.0
62 17 1.0
62 34 -1.0
62 63 -1.0
63 17 -1.0
63 34 1.0
63 63 -1.0
64 21 1.0
64 36 -1.0
64 64 -1.0
65 21 -1.0
65 36 1.0
65 64 -1.0
66 17 -1.0
66 19 0.5
66 33 0.5
66 34 1.0
66 65 -12.0
66 66 -12.0
67 17 1.0
67 19 0.5
67 33 0.5
67 34 -1.0
67 65 -12.0
67 66 12.0
68 20 0.5
68 21 -1.0
68 35 0.5
68 36 1.0
68 65 13.0
68 66 -13.0
69 20 0.5
69 21 1.0
69 35 0.5
69 36 -1.0
69 65 13.0
69 66 13.0
70 17 1.0
70 38 -1.0
70 67 -1.0
71 17 -1.0
71 38 1.0
71 67 -1.0
72 21 1.0
72 40 -1.0
72 68 -1.0
73 21 -1.0
73 40 1.0
73 68 -1.0
74 17 -1.0
74 19 0.5
74 37 0.5
74 38 1.0
74 69 -12.0
74 70 -12.0
75 17 1.0
75 19 0.5
75 37 0.5
75 38 -1.0
75 69 -12.0
75 70 12.0
76 20 0.5
76 21 -1.0
76 39 0.5
76 40 1.0
76 69 13.0
76 70 -13.0
77 20 0.5
77 21 1.0
77 39 0.5
77 40 -1.0
77 69 13.0
77 70 13.0
78 17 1.0
78 42 -1.0
78 71 -1.0
79 17 -1.0
79 42 1.0
79 71 -1.0
80 21 1.0
80 44 -1.0
80 72 -1.0
81 21 -1.0
81 44 1.0
81 72 -1.0
82 17 -1.0
82 19 0.5
82 41 0.5
82 42 1.0
82 73 -12.0
82 74 -12.0
83 17 1.0
83 19 0.5
83 41 0.5
83 42 -1.0
83 73 -12.0
83 74 12.0
84 20 0.5
84 21 -1.0
84 43 0.5
84 44 1.0
84 73 13.0
84 74 -13.0
85 20 0.5
85 21 1.0
85 43 0.5
85 44 -1.0
85 73 13.0
85 74 13.0
86 17 1.0
86 46 -1.0
86 75 -1.0
87 17 -1.0
87 46 1.0
87 75 -1.0
88 21 1.0
88 48 -1.0
88 76 -1.0
89 21 -1.0
89 48 1.0
89 76 -1.0
90 17 -1.0
90 19 0.5
90 45 0.5
90 46 1.0
90 77 -12.0
90 78 -12.0
91 17 1.0
91 19 0.5
91 45 0.5
91 46 -1.0
91 77 -12.0
91 78 12.0
92 20 0.5
92 21 -1.0
92 47 0.5
92 48 1.0
92 77 13.0
92 78 -13.0
93 20 0.5
93 21 1.0
93 47 0.5
93 48 -1.0
93 77 13.0
93 78 13.0
94 17 1.0
94 50 -1.0
94 79 -1.0
95 17 -1.0
95 50 1.0
95 79 -1.0
96 21 1.0
96 52 -1.0
96 80 -1.0
97 21 -1.0
97 52 1.0
97 80 -1.0
98 17 -1.0
98 19 0.5
98 49 0.5
98 50 1.0
98 81 -12.0
98 82 -12.0
99 17 1.0
99 19 0.5
99 49 0.5
99 50 -1.0
99 81 -12.0
99 82 12.0
100 20 0.5
100 21 -1.0
100 51 0.5
100 52 1.0
100 81 13.0
100 82 -13.0
101 20 0.5
101 21 1.0
101 51 0.5
101 52 -1.0
101 81 13.0
101 82 13.0
102 3 -1.0
102 18 1.0
102 26 -1.0
103 3 -1.0
103 18 -1.0
103 26 1.0
104 4 -1.0
104 24 1.0
104 28 -1.0
105 4 -1.0
105 24 -1.0
105 28 1.0
106 18 -1.0
106 22 0.5
106 25 0.5
106 26 1.0
106 83 -12.0
106 84 -12.0
107 18 1.0
107 22 0.5
107 25 0.5
107 26 -1.0
107 83 -12.0
107 84 12.0
108 23 0.5
108 24 -1.0
108 27 0.5
108 28 1.0
108 83 13.0
108 84 -13.0
109 23 0.5
109 24 1.0
109 27 0.5
109 28 -1.0
109 83 13.0
109 84 13.0
110 18 1.0
110 30 -1.0
110 85 -1.0
111 18 -1.0
111 30 1.0
111 85 -1.0
112 24 1.0
112 32 -1.0
112 86 -1.0
113 24 -1.0
113 32 1.0
113 86 -1.0
114 18 -1.0
114 22 0.5
114 29 0.5
114 30 1.0
114 87 -12.0
114 88 -12.0
115 18 1.0
115 22 0.5
115 29 0.5
115 30 -1.0
115 87 -12.0
115 88 12.0
116 23 0.5
116 24 -1.0
116 31 0.5
116 32 1.0
116 87 13.0
116 88 -13.0
117 23 0.5
117 24 1.0
117 31 0.5
117 32 -1.0
117 87 13.0
117 88 13.0
118 18 1.0
118 34 -1.0
118 89 -1.0
119 18 -1.0
119 34 1.0
119 89 -1.0
120 24 1.0
120 36 -1.0
120 90 -1.0
121 24 -1.0
121 36 1.0
121 90 -1.0
122 18 -1.0
122 22 0.5
122 33 0.5
122 34 1.0
122 91 -12.0
122 92 -12.0
123 18 1.0
123 22 0.5
123 33 0.5
123 34 -1.0
123 91 -12.0
123 92 12.0
124 23 0.5
124 24 -1.0
124 35 0.5
124 36 1.0
124 91 13.0
124 92 -13.0
125 23 0.5
125 24 1.0
125 35 0.5
125 36 -1.0
125 91 13.0
125 92 13.0
126 18 1.0
126 38 -1.0
126 93 -1.0
127 18 -1.0
127 38 1.0
127 93 -1.0
128 24 1.0
128 40 -1.0
128 94 -1.0
129 24 -1.0
129 40 1.0
129 94 -1.0
130 18 -1.0
130 22 0.5
130 37 0.5
130 38 1.0
130 95 -12.0
130 96 -12.0
131 18 1.0
131 22 0.5
131 37 0.5
131 38 -1.0
131 95 -12.0
131 96 12.0
132 23 0.5
132 24 -1.0
132 39 0.5
132 40 1.0
132 95 13.0
132 96 -13.0
133 23 0.5
133 24 1.0
133 39 0.5
133 40 -1.0
133 95 13.0
133 96 13.0
134 18 1.0
134 42 -1.0
134 97 -1.0
135 18 -1.0
135 42 1.0
135 97 -1.0
136 24 1.0
136 44 -1.0
136 98 -1.0
137 24 -1.0
137 44 1.0
137 98 -1.0
138 18 -1.0
138 22 0.5
138 41 0.5
138 42 1.0
138 99 -12.0
138 100 -12.0
139 18 1.0
139 22 0.5
139 41 0.5
139 42 -1.0
139 99 -12.0
139 100 12.0
140 23 0.5
140 24 -1.0
140 43 0.5
140 44 1.0
140 99 13.0
140 100 -13.0
141 23 0.5
141 24 1.0
141 43 0.5
141 44 -1.0
141 99 13.0
141 100 13.0
142 18 1.0
142 46 -1.0
142 101 -1.0
143 18 -1.0
143 46 1.0
143 101 -1.0
144 24 1.0
144 48 -1.0
144 102 -1.0
145 24 -1.0
145 48 1.0
145 102 -1.0
146 18 -1.0
146 22 0.5
146 45 0.5
146 46 1.0
146 103 -12.0
146 104 -12.0
147 18 1.0
147 22 0.5
147 45 0.5
147 46 -1.0
147 103 -12.0
147 104 12.0
148 23 0.5
148 24 -1.0
148 47 0.5
148 48 1.0
148 103 13.0
148 104 -13.0
149 23 0.5
149 24 1.0
149 47 0.5
149 48 -1.0
149 103 13.0
149 104 13.0
150 18 1.0
150 50 -1.0
150 105 -1.0
151 18 -1.0
151 50 1.0
151 105 -1.0
152 24 1.0
152 52 -1.0
152 106 -1.0
153 24 -1.0
153 52 1.0
153 106 -1.0
154 18 -1.0
154 22 0.5
154 49 0.5
154 50 1.0
154 107 -12.0
154 108 -12.0
155 18 1.0
155 22 0.5
155 49 0.5
155 50 -1.0
155 107 -12.0
155 108 12.0
156 23 0.5
156 24 -1.0
156 51 0.5
156 52 1.0
156 107 13.0
156 108 -13.0
157 23 0.5
157 24 1.0
157 51 0.5
157 52 -1.0
157 107 13.0
157 108 13.0
158 5 -1.0
158 26 1.0
158 30 -1.0
159 5 -1.0
159 26 -1.0
159 30 1.0
160 6 -1.0
160 28 1.0
160 32 -1.0
161 6 -1.0
161 28 -1.0
161 32 1.0
162 25 0.5
162 26 -1.0
162 29 0.5
162 30 1.0
162 109 -12.0
162 110 -12.0
163 25 0.5
163 26 1.0
163 29 0.5
163 30 -1.0
163 109 -12.0
163 110 12.0
164 27 0.5
164 28 -1.0
164 31 0.5
164 32 1.0
164 109 13.0
164 110 -13.0
165 27 0.5
165 28 1.0
165 31 0.5
165 32 -1.0
165 109 13.0
165 110 13.0
166 26 1.0
166 34 -1.0
166 111 -1.0
167 26 -1.0
167 34 1.0
167 111 -1.0
168 28 1.0
168 36 -1.0
168 112 -1.0
169 28 -1.0
169 36 1.0
169 112 -1.0
170 25 0.5
170 26 -1.0
170 33 0.5
170 34 1.0
170 113 -12.0
170 114 -12.0
171 25 0.5
171 26 1.0
171 33 0.5
171 34 -1.0
171 113 -12.0
171 114 12.0
172 27 0.5
172 28 -1.0
172 35 0.5
172 36 1.0
172 113 13.0
172 114 -13.0
173 27 0.5
173 28 1.0
173 35 0.5
173 36 -1.0
173 113 13.0
173 114 13.0
174 26 1.0
174 38 -1.0
174 115 -1.0
175 26 -1.0
175 38 1.0
175 115 -1.0
176 28 1.0
176 40 -1.0
176 116 -1.0
177 28 -1.0
177 40 1.0
177 116 -1.0
178 25 0.5
178 26 -1.0
178 37 0.5
178 38 1.0
178 117 -12.0
178 118 -12.0
179 25 0.5
179 26 1.0
179 37 0.5
179 38 -1.0
179 117 -12.0
179 118 12.0
180 27 0.5
180 28 -1.0
180 39 0.5
180 40 1.0
180 117 13.0
180 118 -13.0
181 27 0.5
181 28 1.0
181 39 0.5
181 40 -1.0
181 117 13.0
181 118 13.0
182 26 1.0
182 42 -1.0
182 119 -1.0
183 26 -1.0
183 42 1.0
183 119 -1.0
184 28 1.0
184 44 -1.0
184 120 -1.0
185 28 -1.0
185 44 1.0
185 120 -1.0
186 25 0.5
186 26 -1.0
186 41 0.5
186 42 1.0
186 121 -12.0
186 122 -12.0
187 25 0.5
187 26 1.0
187 41 0.5
187 42 -1.0
187 121 -12.0
187 122 12.0
188 27 0.5
188 28 -1.0
188 43 0.5
188 44 1.0
188 121 13.0
188 122 -13.0
189 27 0.5
189 28 1.0
189 43 0.5
189 44 -1.0
189 121 13.0
189 122 13.0
190 26 1.0
190 46 -1.0
190 123 -1.0
191 26 -1.0
191 46 1.0
191 123 -1.0
192 28 1.0
192 48 -1.0
192 124 -1.0
193 28 -1.0
193 48 1.0
193 124 -1.0
194 25 0.5
194 26 -1.0
194 45 0.5
194 46 1.0
194 125 -12.0
194 126 -12.0
195 25 0.5
195 26 1.0
195 45 0.5
195 46 -1.0
195 125 -12.0
195 126 12.0
196 27 0.5
196 28 -1.0
196 47 0.5
196 48 1.0
196 125 13.0
196 126 -13.0
197 27 0.5
197 28 1.0
197 47 0.5
197 48 -1.0
197 125 13.0
197 126 13.0
198 26 1.0
198 50 -1.0
198 127 -1.0
199 26 -1.0
199 50 1.0
199 127 -1.0
200 28 1.0
200 52 -1.0
200 128 -1.0
201 28 -1.0
201 52 1.0
201 128 -1.0
202 25 0.5
202 26 -1.0
202 49 0.5
202 50 1.0
202 129 -12.0
202 130 -12.0
203 25 0.5
203 26 1.0
203 49 0.5
203 50 -1.0
203 129 -12.0
203 130 12.0
204 27 0.5
204 28 -1.0
204 51 0.5
204 52 1.0
204 129 13.0
204 130 -13.0
205 27 0.5
205 28 1.0
205 51 0.5
205 52 -1.0
205 129 13.0
205 130 13.0
206 7 -1.0
206 30 1.0
206 34 -1.0
207 7 -1.0
207 30 -1.0
207 34 1.0
208 8 -1.0
208 32 1.0
208 36 -1.0
209 8 -1.0
209 32 -1.0
209 36 1.0
210 29 0.5
210 30 -1.0
210 33 0.5
210 34 1.0
210 131 -12.0
210 132 -12.0
211 29 0.5
211 30 1.0
211 33 0.5
211 34 -1.0
211 131 -12.0
211 132 12.0
212 31 0.5
212 32 -1.0
212 35 0.5
212 36 1.0
212 131 13.0
212 132 -13.0
213 31 0.5
213 32 1.0
213 35 0.5
213 36 -1.0
213 131 13.0
213 132 13.0
214 30 1.0
214 38 -1.0
214 133 -1.0
215 30 -1.0
215 38 1.0
215 133 -1.0
216 32 1.0
216 40 -1.0
216 134 -1.0
217 32 -1.0
217 40 1.0
217 134 -1.0
218 29 0.5
218 30 -1.0
218 37 0.5
218 38 1.0
218 135 -12.0
218 136 -12.0
219 29 0.5
219 30 1.0
219 37 0.5
219 38 -1.0
219 135 -12.0
219 136 12.0
220 31 0.5
220 32 -1.0
220 39 0.5
220 40 1.0
220 135 13.0
220 136 -13.0
221 31 0.5
221 32 1.0
221 39 0.5
221 40 -1.0
221 135 13.0
221 136 13.0
222 30 1.0
222 42 -1.0
222 137 -1.0
223 30 -1.0
223 42 1.0
223 137 -1.0
224 32 1.0
224 44 -1.0
224 138 -1.0
225 32 -1.0
225 44 1.0
225 138 -1.0
226 29 0.5
226 30 -1.0
226 41 0.5
226 42 1.0
226 139 -12.0
226 140 -12.0
227 29 0.5
227 30 1.0
227 41 0.5
227 42 -1.0
227 139 -12.0
227 140 12.0
228 31 0.5
228 32 -1.0
228 43 0.5
228 44 1.0
228 139 13.0
228 140 -13.0
229 31 0.5
229 32 1.0
229 43 0.5
229 44 -1.0
229 139 13.0
229 140 13.0
230 30 1.0
230 46 -1.0
230 141 -1.0
231 30 -1.0
231 46 1.0
231 141 -1.0
232 32 1.0
232 48 -1.0
232 142 -1.0
233 32 -1.0
233 48 1.0
233 142 -1.0
234 29 0.5
234 30 -1.0
234 45 0.5
234 46 1.0
234 143 -12.0
234 144 -12.0
235 29 0.5
235 30 1.0
235 45 0.5
235 46 -1.0
235 143 -12.0
235 144 12.0
236 31 0.5
236 32 -1.0
236 47 0.5
236 48 1.0
236 143 13.0
236 144 -13.0
237 31 0.5
237 32 1.0
237 47 0.5
237 48 -1.0
237 143 13.0
237 144 13.0
238 30 1.0
238 50 -1.0
238 145 -1.0
239 30 -1.0
239 50 1.0
239 145 -1.0
240 32 1.0
240 52 -1.0
240 146 -1.0
241 32 -1.0
241 52 1.0
241 146 -1.0
242 29 0.5
242 30 -1.0
242 49 0.5
242 50 1.0
242 147 -12.0
242 148 -12.0
243 29 0.5
243 30 1.0
243 49 0.5
243 50 -1.0
243 147 -12.0
243 148 12.0
244 31 0.5
244 32 -1.0
244 51 0.5
244 52 1.0
244 147 13.0
244 148 -13.0
245 31 0.5
245 32 1.0
245 51 0.5
245 52 -1.0
245 147 13.0
245 148 13.0
246 9 -1.0
246 34 1.0
246 38 -1.0
247 9 -1.0
247 34 -1.0
247 38 1.0
248 10 -1.0
248 36 1.0
248 40 -1.0
249 10 -1.0
249 36 -1.0
249 40 1.0
250 33 0.5
250 34 -1.0
250 37 0.5
250 38 1.0
250 149 -12.0
250 150 -12.0
251 33 0.5
251 34 1.0
251 37 0.5
251 38 -1.0
251 149 -12.0
251 150 12.0
252 35 0.5
252 36 -1.0
252 39 0.5
252 40 1.0
252 149 13.0
252 150 -13.0
253 35 0.5
253 36 1.0
253 39 0.5
253 40 -1.0
253 149 13.0
253 150 13.0
254 34 1.0
254 42 -1.0
254 151 -1.0
255 34 -1.0
255 42 1.0
255 151 -1.0
256 36 1.0
256 44 -1.0
256 152 -1.0
257 36 -1.0
257 44 1.0
257 152 -1.0
258 33 0.5
258 34 -1.0
258 41 0.5
258 42 1.0
258 153 -12.0
258 154 -12.0
259 33 0.5
259 34 1.0
259 41 0.5
259 42 -1.0
259 153 -12.0
259 154 12.0
260 35 0.5
260 36 -1.0
260 43 0.5
260 44 1.0
260 153 13.0
260 154 -13.0
261 35 0.5
261 36 1.0
261 43 0.5
261 44 -1.0
261 153 13.0
261 154 13.0
262 34 1.0
262 46 -1.0
262 155 -1.0
263 34 -1.0
263 46 1.0
263 155 -1.0
264 36 1.0
264 48 -1.0
264 156 -1.0
265 36 -1.0
265 48 1.0
265 156 -1.0
266 33 0.5
266 34 -1.0
266 45 0.5
266 46 1.0
266 157 -12.0
266 158 -12.0
267 33 0.5
267 34 1.0
267 45 0.5
267 46 -1.0
267 157 -12.0
267 158 12.0
268 35 0.5
268 36 -1.0
268 47 0.5
268 48 1.0
268 157 13.0
268 158 -13.0
269 35 0.5
269 36 1.0
269 47 0.5
269 48 -1.0
269 157 13.0
269 158 13.0
270 34 1.0
270 50 -1.0
270 159 -1.0
271 34 -1.0
271 50 1.0
271 159 -1.0
272 36 1.0
272 52 -1.0
272 160 -1.0
273 36 -1.0
273 52 1.0
273 160 -1.0
274 33 0.5
274 34 -1.0
274 49 0.5
274 50 1.0
274 161 -12.0
274 162 -12.0
275 33 0.5
275 34 1.0
275 49 0.5
275 50 -1.0
275 161 -12.0
275 162 12.0
276 35 0.5
276 36 -1.0
276 51 0.5
276 52 1.0
276 161 13.0
276 162 -13.0
277 35 0.5
277 36 1.0
277 51 0.5
277 52 -1.0
277 161 13.0
277 162 13.0
278 11 -1.0
278 38 1.0
278 42 -1.0
279 11 -1.0
279 38 -1.0
279 42 1.0
280 12 -1.0
280 40 1.0
280 44 -1.0
281 12 -1.0
281 40 -1.0
281 44 1.0
282 37 0.5
282 38 -1.0
282 41 0.5
282 42 1.0
282 163 -12.0
282 164 -12.0
283 37 0.5
283 38 1.0
283 41 0.5
283 42 -1.0
283 163 -12.0
283 164 12.0
284 39 0.5
284 40 -1.0
284 43 0.5
284 44 1.0
284 163 13.0
284 164 -13.0
285 39 0.5
285 40 1.0
285 43 0.5
285 44 -1.0
285 163 13.0
285 164 13.0
286 38 1.0
286 46 -1.0
286 165 -1.0
287 38 -1.0
287 46 1.0
287 165 -1.0
288 40 1.0
288 48 -1.0
288 166 -1.0
289 40 -1.0
289 48 1.0
289 166 -1.0
290 37 0.5
290 38 -1.0
290 45 0.5
290 46 1.0
290 167 -12.0
290 168 -12.0
291 37 0.5
291 38 1.0
291 45 0.5
291 46 -1.0
291 167 -12.0
291 168 12.0
292 39 0.5
292 40 -1.0
292 47 0.5
292 48 1.0
292 167 13.0
292 168 -13.0
293 39 0.5
293 40 1.0
293 47 0.5
293 48 -1.0
293 167 13.0
293 168 13.0
294 38 1.0
294 50 -1.0
294 169 -1.0
295 38 -1.0
295 50 1.0
295 169 -1.0
296 40 1.0
296 52 -1.0
296 170 -1.0
297 40 -1.0
297 52 1.0
297 170 -1.0
298 37 0.5
298 38 -1.0
298 49 0.5
298 50 1.0
298 171 -12.0
298 172 -12.0
299 37 0.5
299 38 1.0
299 49 0.5
299 50 -1.0
299 171 -12.0
299 172 12.0
300 39 0.5
300 40 -1.0
300 51 0.5
300 52 1.0
300 171 13.0
300 172 -13.0
301 39 0.5
301 40 1.0
301 51 0.5
301 52 -1.0
301 171 13.0
301 172 13.0
302 13 -1.0
302 42 1.0
302 46 -1.0
303 13 -1.0
303 42 -1.0
303 46 1.0
304 14 -1.0
304 44 1.0
304 48 -1.0
305 14 -1.0
305 44 -1.0
305 48 1.0
306 41 0.5
306 42 -1.0
306 45 0.5
306 46 1.0
306 173 -12.0
306 174 -12.0
307 41 0.5
307 42 1.0
307 45 0.5
307 46 -1.0
307 173 -12.0
307 174 12.0
308 43 0.5
308 44 -1.0
308 47 0.5
308 48 1.0
308 173 13.0
308 174 -13.0
309 43 0.5
309 44 1.0
309 47 0.5
309 48 -1.0
309 173 13.0
309 174 13.0
310 42 1.0
310 50 -1.0
310 175 -1.0
311 42 -1.0
311 50 1.0
311 175 -1.0
312 44 1.0
312 52 -1.0
312 176 -1.0
313 44 -1.0
313 52 1.0
313 176 -1.0
314 41 0.5
314 42 -1.0
314 49 0.5
314 50 1.0
314 177 -12.0
314 178 -12.0
315 41 0.5
315 42 1.0
315 49 0.5
315 50 -1.0
315 177 -12.0
315 178 12.0
316 43 0.5
316 44 -1.0
316 51 0.5
316 52 1.0
316 177 13.0
316 178 -13.0
317 43 0.5
317 44 1.0
317 51 0.5
317 52 -1.0
317 177 13.0
317 178 13.0
318 15 -1.0
318 46 1.0
318 50 -1.0
319 15 -1.0
319 46 -1.0
319 50 1.0
320 16 -1.0
320 48 1.0
320 52 -1.0
321 16 -1.0
321 48 -1.0
321 52 1.0
322 45 0.5
322 46 -1.0
322 49 0.5
322 50 1.0
322 179 -12.0
322 180 -12.0
323 45 0.5
323 46 1.0
323 49 0.5
323 50 -1.0
323 179 -12.0
323 180 12.0
324 47 0.5
324 48 -1.0
324 51 0.5
324 52 1.0
324 179 13.0
324 180 -13.0
325 47 0.5
325 48 1.0
325 51 0.5
325 52 -1.0
325 179 13.0
325 180 13.0
1.79769313486232E+308 # value for infinity
-1.79769313486232E+308 # default left-hand-side value
0 # number of non-default left-hand-sides
-9.0 # default right-hand-side value
335 # number of non-default right-hand-sides
1 0.0
2 12.0
3 0.0
4 13.0
5 0.0
6 12.0
7 0.0
8 13.0
9 0.0
10 12.0
11 0.0
12 13.0
13 0.0
14 12.0
15 0.0
16 13.0
17 0.0
18 12.0
19 0.0
20 13.0
21 0.0
22 12.0
23 0.0
24 13.0
25 0.0
26 12.0
27 0.0
28 13.0
29 0.0
30 12.0
31 0.0
32 13.0
33 0.0
34 12.0
35 0.0
36 13.0
37 0.0
38 0.0
39 0.0
40 0.0
41 0.0
42 0.0
43 12.0
44 13.0
45 26.0
46 0.0
47 0.0
48 0.0
49 0.0
50 0.0
51 12.0
52 13.0
53 26.0
54 0.0
55 0.0
56 0.0
57 0.0
58 0.0
59 12.0
60 13.0
61 26.0
62 0.0
63 0.0
64 0.0
65 0.0
66 0.0
67 12.0
68 13.0
69 26.0
70 0.0
71 0.0
72 0.0
73 0.0
74 0.0
75 12.0
76 13.0
77 26.0
78 0.0
79 0.0
80 0.0
81 0.0
82 0.0
83 12.0
84 13.0
85 26.0
86 0.0
87 0.0
88 0.0
89 0.0
90 0.0
91 12.0
92 13.0
93 26.0
94 0.0
95 0.0
96 0.0
97 0.0
98 0.0
99 12.0
100 13.0
101 26.0
102 0.0
103 0.0
104 0.0
105 0.0
106 0.0
107 12.0
108 13.0
109 26.0
110 0.0
111 0.0
112 0.0
113 0.0
114 0.0
115 12.0
116 13.0
117 26.0
118 0.0
119 0.0
120 0.0
121 0.0
122 0.0
123 12.0
124 13.0
125 26.0
126 0.0
127 0.0
128 0.0
129 0.0
130 0.0
131 12.0
132 13.0
133 26.0
134 0.0
135 0.0
136 0.0
137 0.0
138 0.0
139 12.0
140 13.0
141 26.0
142 0.0
143 0.0
144 0.0
145 0.0
146 0.0
147 12.0
148 13.0
149 26.0
150 0.0
151 0.0
152 0.0
153 0.0
154 0.0
155 12.0
156 13.0
157 26.0
158 0.0
159 0.0
160 0.0
161 0.0
162 0.0
163 12.0
164 13.0
165 26.0
166 0.0
167 0.0
168 0.0
169 0.0
170 0.0
171 12.0
172 13.0
173 26.0
174 0.0
175 0.0
176 0.0
177 0.0
178 0.0
179 12.0
180 13.0
181 26.0
182 0.0
183 0.0
184 0.0
185 0.0
186 0.0
187 12.0
188 13.0
189 26.0
190 0.0
191 0.0
192 0.0
193 0.0
194 0.0
195 12.0
196 13.0
197 26.0
198 0.0
199 0.0
200 0.0
201 0.0
202 0.0
203 12.0
204 13.0
205 26.0
206 0.0
207 0.0
208 0.0
209 0.0
210 0.0
211 12.0
212 13.0
213 26.0
214 0.0
215 0.0
216 0.0
217 0.0
218 0.0
219 12.0
220 13.0
221 26.0
222 0.0
223 0.0
224 0.0
225 0.0
226 0.0
227 12.0
228 13.0
229 26.0
230 0.0
231 0.0
232 0.0
233 0.0
234 0.0
235 12.0
236 13.0
237 26.0
238 0.0
239 0.0
240 0.0
241 0.0
242 0.0
243 12.0
244 13.0
245 26.0
246 0.0
247 0.0
248 0.0
249 0.0
250 0.0
251 12.0
252 13.0
253 26.0
254 0.0
255 0.0
256 0.0
257 0.0
258 0.0
259 12.0
260 13.0
261 26.0
262 0.0
263 0.0
264 0.0
265 0.0
266 0.0
267 12.0
268 13.0
269 26.0
270 0.0
271 0.0
272 0.0
273 0.0
274 0.0
275 12.0
276 13.0
277 26.0
278 0.0
279 0.0
280 0.0
281 0.0
282 0.0
283 12.0
284 13.0
285 26.0
286 0.0
287 0.0
288 0.0
289 0.0
290 0.0
291 12.0
292 13.0
293 26.0
294 0.0
295 0.0
296 0.0
297 0.0
298 0.0
299 12.0
300 13.0
301 26.0
302 0.0
303 0.0
304 0.0
305 0.0
306 0.0
307 12.0
308 13.0
309 26.0
310 0.0
311 0.0
312 0.0
313 0.0
314 0.0
315 12.0
316 13.0
317 26.0
318 0.0
319 0.0
320 0.0
321 0.0
322 0.0
323 12.0
324 13.0
325 26.0
326 -16.0
327 -16.0
328 -16.0
329 -16.0
330 -16.0
331 -16.0
332 -36.0
333 -36.0
334 -36.0
335 -36.0
-1.79769313486232E+308 # default variable lower bound value
90 # number of non-default variable lower bounds
19 2.0
20 2.0
22 2.0
23 2.0
25 2.0
27 2.0
29 3.0
31 3.0
33 3.0
35 3.0
37 1.5
39 1.5
41 1.5
43 1.5
45 1.5
47 1.5
49 1.5
51 1.5
53 0.0
54 0.0
57 0.0
58 0.0
61 0.0
62 0.0
65 0.0
66 0.0
69 0.0
70 0.0
73 0.0
74 0.0
77 0.0
78 0.0
81 0.0
82 0.0
83 0.0
84 0.0
87 0.0
88 0.0
91 0.0
92 0.0
95 0.0
96 0.0
99 0.0
100 0.0
103 0.0
104 0.0
107 0.0
108 0.0
109 0.0
110 0.0
113 0.0
114 0.0
117 0.0
118 0.0
121 0.0
122 0.0
125 0.0
126 0.0
129 0.0
130 0.0
131 0.0
132 0.0
135 0.0
136 0.0
139 0.0
140 0.0
143 0.0
144 0.0
147 0.0
148 0.0
149 0.0
150 0.0
153 0.0
154 0.0
157 0.0
158 0.0
161 0.0
162 0.0
163 0.0
164 0.0
167 0.0
168 0.0
171 0.0
172 0.0
173 0.0
174 0.0
177 0.0
178 0.0
179 0.0
180 0.0
1.79769313486232E+308 # default variable upper bound value
90 # number of non-default variable upper bounds
19 8.0
20 8.0
22 8.0
23 8.0
25 8.0
27 8.0
29 12.0
31 12.0
33 12.0
35 12.0
37 6.0
39 6.0
41 6.0
43 6.0
45 6.0
47 6.0
49 6.0
51 6.0
53 1.0
54 1.0
57 1.0
58 1.0
61 1.0
62 1.0
65 1.0
66 1.0
69 1.0
70 1.0
73 1.0
74 1.0
77 1.0
78 1.0
81 1.0
82 1.0
83 1.0
84 1.0
87 1.0
88 1.0
91 1.0
92 1.0
95 1.0
96 1.0
99 1.0
100 1.0
103 1.0
104 1.0
107 1.0
108 1.0
109 1.0
110 1.0
113 1.0
114 1.0
117 1.0
118 1.0
121 1.0
122 1.0
125 1.0
126 1.0
129 1.0
130 1.0
131 1.0
132 1.0
135 1.0
136 1.0
139 1.0
140 1.0
143 1.0
144 1.0
147 1.0
148 1.0
149 1.0
150 1.0
153 1.0
154 1.0
157 1.0
158 1.0
161 1.0
162 1.0
163 1.0
164 1.0
167 1.0
168 1.0
171 1.0
172 1.0
173 1.0
174 1.0
177 1.0
178 1.0
179 1.0
180 1.0
0 # default variable type
72 # number of non-default variable types
53 1
54 1
57 1
58 1
61 1
62 1
65 1
66 1
69 1
70 1
73 1
74 1
77 1
78 1
81 1
82 1
83 1
84 1
87 1
88 1
91 1
92 1
95 1
96 1
99 1
100 1
103 1
104 1
107 1
108 1
109 1
110 1
113 1
114 1
117 1
118 1
121 1
122 1
125 1
126 1
129 1
130 1
131 1
132 1
135 1
136 1
139 1
140 1
143 1
144 1
147 1
148 1
149 1
150 1
153 1
154 1
157 1
158 1
161 1
162 1
163 1
164 1
167 1
168 1
171 1
172 1
173 1
174 1
177 1
178 1
179 1
180 1
0.0 # default variable primal value in starting point
18 # number of non-default variable primal values in starting point
19 2.0
20 2.0
22 2.0
23 2.0
25 2.0
27 2.0
29 3.0
31 3.0
33 3.0
35 3.0
37 1.5
39 1.5
41 1.5
43 1.5
45 1.5
47 1.5
49 1.5
51 1.5
0.0 # default constraint dual value in starting point
0 # number of non-default constraint dual values in starting point
0.0 # default variable bound dual value in starting point
0 # number of non-default variable bound dual values in starting point
0 # number of non-default variable names
0 # number of non-default constraint names
